
  18    0


   0  10 2 3 4 6 7 13 14 15 16 17 
   6   4 12 10 8 5 
   2   2 11 8 
   2   1 5 
   8   1 9 
   4   1 10 
   8   1 8 
   9   1 18
   9   1 18
   8   1 18
  10   1 18
   2   1 18
   6   1 18
   9   1 18
   7   1 18
   3   1 18
   8   1 18
   0   0 
